10
50
0 360000
28620 35820
24180 31380
11760 18960
23220 30420
28500 35700
7440 14640
4980 12180
20040 27240
480 7680
9780 16980
19980 27180
3180 10380
3120 10320
8340 15540
11460 18660
16080 23280
8940 16140
8520 15720
23280 30480
8880 16080
10800 18000
11520 18720
24240 31440
11820 19020
20880 28080
18960 26160
11700 18900
27420 34620
18600 25800
14880 22080
6420 13620
16800 24000
21600 28800
13140 20340
26100 33300
8160 15360
19260 26460
25680 32880
8100 15300
10620 17820
360 7560
8460 15660
28380 35580
21960 29160
16740 23940
17460 24660
7680 14880
14640 21840
22860 30060
24720 31920